<instance format="XCSP3" type="COP">
  <variables>
    <var id="x" note="x is the number of unused bins"> 0..23 </var>
    <array id="b" note="b[i][j] indicates the weight of the jth object put in the ith bin. It is 0 if there is no object at this place." size="[23][3]"> 0 250 251 253..262 264 267 278 280 281 286..288 291 293 296 297 299 317 323 327 340 350 353 356 361 369 381 386 419 421 429 434 444 448 452 456 459 480 485 488 492 493 495 </array>
  </variables>
  <constraints>
    <group>
      <mdd>
        <list> %... </list>
        <transitions> (root,0,n3)(root,250,n3)(root,251,n5)(root,253,n7)(root,254,n9)(root,255,n11)(root,256,n13)(root,257,n15)(root,258,n17)(root,259,n19)(root,260,n21)(root,261,n22)(root,262,n24)(root,264,n26)(root,267,n28)(root,278,n30)(root,280,n33)(root,281,n35)(root,286,n36)(root,287,n38)(root,288,n40)(root,291,n42)(root,293,n44)(root,296,n46)(root,297,n46)(root,299,n49)(root,317,n50)(root,323,n53)(root,327,n55)(root,340,n56)(root,350,n58)(root,353,n59)(root,356,n60)(root,361,n62)(root,369,n63)(root,381,n64)(root,386,n65)(root,419,n66)(root,421,n67)(root,429,n68)(root,434,n69)(root,444,n70)(root,448,n71)(root,452,n72)(root,456,n73)(root,459,n74)(root,480,n75)(root,485,n76)(root,488,n77)(root,492,n78)(root,493,n79)(root,495,n80)(n3,0,n4)(n4,0,nodeT)(n5,0,n4)(n5,250,n4)(n5,251,n6)(n6,0,nodeT)(n6,250,nodeT)(n7,0,n4)(n7,250,n4)(n7,251,n8)(n7,253,n8)(n8,0,nodeT)(n8,250,nodeT)(n8,251,nodeT)(n9,0,n4)(n9,250,n4)(n9,251,n8)(n9,253,n10)(n9,254,n10)(n10,0,nodeT)(n10,250,nodeT)(n10,251,nodeT)(n10,253,nodeT)(n11,0,n4)(n11,250,n4)(n11,251,n8)(n11,253,n10)(n11,254,n12)(n12,0,nodeT)(n12,250,nodeT)(n12,251,nodeT)(n12,253,nodeT)(n12,254,nodeT)(n13,0,n4)(n13,250,n4)(n13,251,n8)(n13,253,n10)(n13,254,n12)(n13,255,n12)(n13,256,n14)(n14,0,nodeT)(n14,250,nodeT)(n14,251,nodeT)(n14,253,nodeT)(n14,254,nodeT)(n14,255,nodeT)(n15,0,n4)(n15,250,n4)(n15,251,n8)(n15,253,n10)(n15,254,n12)(n15,255,n12)(n15,256,n16)(n16,0,nodeT)(n16,250,nodeT)(n16,251,nodeT)(n16,253,nodeT)(n16,254,nodeT)(n16,255,nodeT)(n16,256,nodeT)(n17,0,n4)(n17,250,n4)(n17,251,n8)(n17,253,n10)(n17,254,n12)(n17,255,n12)(n17,256,n16)(n17,257,n16)(n17,258,n18)(n18,0,nodeT)(n18,250,nodeT)(n18,251,nodeT)(n18,253,nodeT)(n18,254,nodeT)(n18,255,nodeT)(n18,256,nodeT)(n18,257,nodeT)(n19,0,n4)(n19,250,n4)(n19,251,n8)(n19,253,n10)(n19,254,n12)(n19,255,n12)(n19,256,n16)(n19,257,n16)(n19,258,n20)(n20,0,nodeT)(n20,250,nodeT)(n20,251,nodeT)(n20,253,nodeT)(n20,254,nodeT)(n20,255,nodeT)(n20,256,nodeT)(n20,257,nodeT)(n20,258,nodeT)(n21,0,n4)(n21,250,n4)(n21,251,n8)(n21,253,n10)(n21,254,n12)(n21,255,n12)(n21,256,n16)(n21,257,n16)(n21,258,n20)(n21,259,n20)(n22,0,n4)(n22,250,n4)(n22,251,n8)(n22,253,n10)(n22,254,n12)(n22,255,n12)(n22,256,n16)(n22,257,n16)(n22,258,n20)(n22,259,n20)(n22,260,n23)(n23,0,nodeT)(n23,250,nodeT)(n23,251,nodeT)(n23,253,nodeT)(n23,254,nodeT)(n23,255,nodeT)(n23,256,nodeT)(n23,257,nodeT)(n23,258,nodeT)(n23,259,nodeT)(n24,0,n4)(n24,250,n4)(n24,251,n8)(n24,253,n10)(n24,254,n12)(n24,255,n12)(n24,256,n16)(n24,257,n16)(n24,258,n20)(n24,259,n20)(n24,260,n23)(n24,261,n25)(n25,0,nodeT)(n25,250,nodeT)(n25,251,nodeT)(n25,253,nodeT)(n25,254,nodeT)(n25,255,nodeT)(n25,256,nodeT)(n25,257,nodeT)(n25,258,nodeT)(n25,259,nodeT)(n25,260,nodeT)(n26,0,n4)(n26,250,n4)(n26,251,n8)(n26,253,n10)(n26,254,n12)(n26,255,n12)(n26,256,n16)(n26,257,n16)(n26,258,n20)(n26,259,n20)(n26,260,n23)(n26,261,n25)(n26,262,n27)(n27,0,nodeT)(n27,250,nodeT)(n27,251,nodeT)(n27,253,nodeT)(n27,254,nodeT)(n27,255,nodeT)(n27,256,nodeT)(n27,257,nodeT)(n27,258,nodeT)(n27,259,nodeT)(n27,260,nodeT)(n27,261,nodeT)(n28,0,n4)(n28,250,n4)(n28,251,n8)(n28,253,n10)(n28,254,n12)(n28,255,n12)(n28,256,n16)(n28,257,n16)(n28,258,n20)(n28,259,n20)(n28,260,n23)(n28,261,n25)(n28,262,n27)(n28,264,n29)(n29,0,nodeT)(n29,250,nodeT)(n29,251,nodeT)(n29,253,nodeT)(n29,254,nodeT)(n29,255,nodeT)(n29,256,nodeT)(n29,257,nodeT)(n29,258,nodeT)(n29,259,nodeT)(n29,260,nodeT)(n29,261,nodeT)(n29,262,nodeT)(n30,0,n4)(n30,250,n4)(n30,251,n8)(n30,253,n10)(n30,254,n12)(n30,255,n12)(n30,256,n16)(n30,257,n16)(n30,258,n20)(n30,259,n20)(n30,260,n23)(n30,261,n25)(n30,262,n27)(n30,264,n29)(n30,267,n31)(n30,278,n32)(n31,0,nodeT)(n31,250,nodeT)(n31,251,nodeT)(n31,253,nodeT)(n31,254,nodeT)(n31,255,nodeT)(n31,256,nodeT)(n31,257,nodeT)(n31,258,nodeT)(n31,259,nodeT)(n31,260,nodeT)(n31,261,nodeT)(n31,262,nodeT)(n31,264,nodeT)(n32,0,nodeT)(n32,250,nodeT)(n32,251,nodeT)(n32,253,nodeT)(n32,254,nodeT)(n32,255,nodeT)(n32,256,nodeT)(n32,257,nodeT)(n32,258,nodeT)(n32,259,nodeT)(n32,260,nodeT)(n32,261,nodeT)(n32,262,nodeT)(n32,264,nodeT)(n32,267,nodeT)(n33,0,n4)(n33,250,n4)(n33,251,n8)(n33,253,n10)(n33,254,n12)(n33,255,n12)(n33,256,n16)(n33,257,n16)(n33,258,n20)(n33,259,n20)(n33,260,n23)(n33,261,n25)(n33,262,n27)(n33,264,n29)(n33,267,n31)(n33,278,n34)(n34,0,nodeT)(n34,250,nodeT)(n34,251,nodeT)(n34,253,nodeT)(n34,254,nodeT)(n34,255,nodeT)(n34,256,nodeT)(n34,257,nodeT)(n34,258,nodeT)(n34,259,nodeT)(n34,260,nodeT)(n34,261,nodeT)(n34,262,nodeT)(n34,264,nodeT)(n34,267,nodeT)(n34,278,nodeT)(n35,0,n4)(n35,250,n4)(n35,251,n8)(n35,253,n10)(n35,254,n12)(n35,255,n12)(n35,256,n16)(n35,257,n16)(n35,258,n20)(n35,259,n20)(n35,260,n23)(n35,261,n25)(n35,262,n27)(n35,264,n29)(n35,267,n31)(n35,278,n34)(n35,280,n34)(n36,0,n4)(n36,250,n4)(n36,251,n8)(n36,253,n10)(n36,254,n12)(n36,255,n12)(n36,256,n16)(n36,257,n16)(n36,258,n20)(n36,259,n20)(n36,260,n23)(n36,261,n25)(n36,262,n27)(n36,264,n29)(n36,267,n31)(n36,278,n34)(n36,280,n34)(n36,281,n37)(n37,0,nodeT)(n37,250,nodeT)(n37,251,nodeT)(n37,253,nodeT)(n37,254,nodeT)(n37,255,nodeT)(n37,256,nodeT)(n37,257,nodeT)(n37,258,nodeT)(n37,259,nodeT)(n37,260,nodeT)(n37,261,nodeT)(n37,262,nodeT)(n37,264,nodeT)(n37,267,nodeT)(n37,278,nodeT)(n37,280,nodeT)(n38,0,n4)(n38,250,n4)(n38,251,n8)(n38,253,n10)(n38,254,n12)(n38,255,n12)(n38,256,n16)(n38,257,n16)(n38,258,n20)(n38,259,n20)(n38,260,n23)(n38,261,n25)(n38,262,n27)(n38,264,n29)(n38,267,n31)(n38,278,n34)(n38,280,n34)(n38,281,n37)(n38,286,n39)(n39,0,nodeT)(n39,250,nodeT)(n39,251,nodeT)(n39,253,nodeT)(n39,254,nodeT)(n39,255,nodeT)(n39,256,nodeT)(n39,257,nodeT)(n39,258,nodeT)(n39,259,nodeT)(n39,260,nodeT)(n39,261,nodeT)(n39,262,nodeT)(n39,264,nodeT)(n39,267,nodeT)(n39,278,nodeT)(n39,280,nodeT)(n39,281,nodeT)(n40,0,n4)(n40,250,n4)(n40,251,n8)(n40,253,n10)(n40,254,n12)(n40,255,n12)(n40,256,n16)(n40,257,n16)(n40,258,n20)(n40,259,n20)(n40,260,n23)(n40,261,n25)(n40,262,n27)(n40,264,n29)(n40,267,n31)(n40,278,n34)(n40,280,n34)(n40,281,n37)(n40,286,n39)(n40,287,n41)(n41,0,nodeT)(n41,250,nodeT)(n41,251,nodeT)(n41,253,nodeT)(n41,254,nodeT)(n41,255,nodeT)(n41,256,nodeT)(n41,257,nodeT)(n41,258,nodeT)(n41,259,nodeT)(n41,260,nodeT)(n41,261,nodeT)(n41,262,nodeT)(n41,264,nodeT)(n41,267,nodeT)(n41,278,nodeT)(n41,280,nodeT)(n41,281,nodeT)(n41,286,nodeT)(n42,0,n4)(n42,250,n4)(n42,251,n8)(n42,253,n10)(n42,254,n12)(n42,255,n12)(n42,256,n16)(n42,257,n16)(n42,258,n20)(n42,259,n20)(n42,260,n23)(n42,261,n25)(n42,262,n27)(n42,264,n29)(n42,267,n31)(n42,278,n34)(n42,280,n34)(n42,281,n37)(n42,286,n39)(n42,287,n41)(n42,288,n43)(n43,0,nodeT)(n43,250,nodeT)(n43,251,nodeT)(n43,253,nodeT)(n43,254,nodeT)(n43,255,nodeT)(n43,256,nodeT)(n43,257,nodeT)(n43,258,nodeT)(n43,259,nodeT)(n43,260,nodeT)(n43,261,nodeT)(n43,262,nodeT)(n43,264,nodeT)(n43,267,nodeT)(n43,278,nodeT)(n43,280,nodeT)(n43,281,nodeT)(n43,286,nodeT)(n43,287,nodeT)(n44,0,n4)(n44,250,n4)(n44,251,n8)(n44,253,n10)(n44,254,n12)(n44,255,n12)(n44,256,n16)(n44,257,n16)(n44,258,n20)(n44,259,n20)(n44,260,n23)(n44,261,n25)(n44,262,n27)(n44,264,n29)(n44,267,n31)(n44,278,n34)(n44,280,n34)(n44,281,n37)(n44,286,n39)(n44,287,n41)(n44,288,n43)(n44,291,n45)(n45,0,nodeT)(n45,250,nodeT)(n45,251,nodeT)(n45,253,nodeT)(n45,254,nodeT)(n45,255,nodeT)(n45,256,nodeT)(n45,257,nodeT)(n45,258,nodeT)(n45,259,nodeT)(n45,260,nodeT)(n45,261,nodeT)(n45,262,nodeT)(n45,264,nodeT)(n45,267,nodeT)(n45,278,nodeT)(n45,280,nodeT)(n45,281,nodeT)(n45,286,nodeT)(n45,287,nodeT)(n45,288,nodeT)(n46,0,n4)(n46,250,n4)(n46,251,n8)(n46,253,n10)(n46,254,n12)(n46,255,n12)(n46,256,n16)(n46,257,n16)(n46,258,n20)(n46,259,n20)(n46,260,n23)(n46,261,n25)(n46,262,n27)(n46,264,n29)(n46,267,n31)(n46,278,n34)(n46,280,n34)(n46,281,n37)(n46,286,n39)(n46,287,n41)(n46,288,n43)(n46,291,n45)(n46,293,n47)(n46,296,n48)(n47,0,nodeT)(n47,250,nodeT)(n47,251,nodeT)(n47,253,nodeT)(n47,254,nodeT)(n47,255,nodeT)(n47,256,nodeT)(n47,257,nodeT)(n47,258,nodeT)(n47,259,nodeT)(n47,260,nodeT)(n47,261,nodeT)(n47,262,nodeT)(n47,264,nodeT)(n47,267,nodeT)(n47,278,nodeT)(n47,280,nodeT)(n47,281,nodeT)(n47,286,nodeT)(n47,287,nodeT)(n47,288,nodeT)(n47,291,nodeT)(n48,0,nodeT)(n48,250,nodeT)(n48,251,nodeT)(n48,253,nodeT)(n48,254,nodeT)(n48,255,nodeT)(n48,256,nodeT)(n48,257,nodeT)(n48,258,nodeT)(n48,259,nodeT)(n48,260,nodeT)(n48,261,nodeT)(n48,262,nodeT)(n48,264,nodeT)(n48,267,nodeT)(n48,278,nodeT)(n48,280,nodeT)(n48,281,nodeT)(n48,286,nodeT)(n48,287,nodeT)(n48,288,nodeT)(n48,291,nodeT)(n48,293,nodeT)(n48,296,nodeT)(n49,0,n4)(n49,250,n4)(n49,251,n8)(n49,253,n10)(n49,254,n12)(n49,255,n12)(n49,256,n16)(n49,257,n16)(n49,258,n20)(n49,259,n20)(n49,260,n23)(n49,261,n25)(n49,262,n27)(n49,264,n29)(n49,267,n31)(n49,278,n34)(n49,280,n34)(n49,281,n37)(n49,286,n39)(n49,287,n41)(n49,288,n43)(n49,291,n45)(n49,293,n47)(n49,296,n48)(n49,297,n48)(n50,0,n4)(n50,250,n4)(n50,251,n8)(n50,253,n10)(n50,254,n12)(n50,255,n12)(n50,256,n16)(n50,257,n16)(n50,258,n20)(n50,259,n20)(n50,260,n23)(n50,261,n25)(n50,262,n27)(n50,264,n29)(n50,267,n31)(n50,278,n34)(n50,280,n34)(n50,281,n37)(n50,286,n39)(n50,287,n41)(n50,288,n43)(n50,291,n45)(n50,293,n47)(n50,296,n48)(n50,297,n48)(n50,299,n51)(n50,317,n52)(n51,0,nodeT)(n51,250,nodeT)(n51,251,nodeT)(n51,253,nodeT)(n51,254,nodeT)(n51,255,nodeT)(n51,256,nodeT)(n51,257,nodeT)(n51,258,nodeT)(n51,259,nodeT)(n51,260,nodeT)(n51,261,nodeT)(n51,262,nodeT)(n51,264,nodeT)(n51,267,nodeT)(n51,278,nodeT)(n51,280,nodeT)(n51,281,nodeT)(n51,286,nodeT)(n51,287,nodeT)(n51,288,nodeT)(n51,291,nodeT)(n51,293,nodeT)(n51,296,nodeT)(n51,297,nodeT)(n52,0,nodeT)(n52,250,nodeT)(n52,251,nodeT)(n52,253,nodeT)(n52,254,nodeT)(n52,255,nodeT)(n52,256,nodeT)(n52,257,nodeT)(n52,258,nodeT)(n52,259,nodeT)(n52,260,nodeT)(n52,261,nodeT)(n52,262,nodeT)(n52,264,nodeT)(n52,267,nodeT)(n52,278,nodeT)(n52,280,nodeT)(n52,281,nodeT)(n52,286,nodeT)(n52,287,nodeT)(n52,288,nodeT)(n52,291,nodeT)(n52,293,nodeT)(n52,296,nodeT)(n52,297,nodeT)(n52,299,nodeT)(n53,0,n4)(n53,250,n4)(n53,251,n8)(n53,253,n10)(n53,254,n12)(n53,255,n12)(n53,256,n16)(n53,257,n16)(n53,258,n20)(n53,259,n20)(n53,260,n23)(n53,261,n25)(n53,262,n27)(n53,264,n29)(n53,267,n31)(n53,278,n34)(n53,280,n34)(n53,281,n37)(n53,286,n39)(n53,287,n41)(n53,288,n43)(n53,291,n45)(n53,293,n47)(n53,296,n48)(n53,297,n48)(n53,299,n51)(n53,317,n54)(n54,0,nodeT)(n54,250,nodeT)(n54,251,nodeT)(n54,253,nodeT)(n54,254,nodeT)(n54,255,nodeT)(n54,256,nodeT)(n54,257,nodeT)(n54,258,nodeT)(n54,259,nodeT)(n54,260,nodeT)(n54,261,nodeT)(n54,262,nodeT)(n54,264,nodeT)(n54,267,nodeT)(n54,278,nodeT)(n54,280,nodeT)(n54,281,nodeT)(n54,286,nodeT)(n54,287,nodeT)(n54,288,nodeT)(n54,291,nodeT)(n54,293,nodeT)(n54,296,nodeT)(n54,297,nodeT)(n54,299,nodeT)(n54,317,nodeT)(n55,0,n4)(n55,250,n4)(n55,251,n8)(n55,253,n10)(n55,254,n12)(n55,255,n12)(n55,256,n16)(n55,257,n16)(n55,258,n20)(n55,259,n20)(n55,260,n23)(n55,261,n25)(n55,262,n27)(n55,264,n29)(n55,267,n31)(n55,278,n34)(n55,280,n34)(n55,281,n37)(n55,286,n39)(n55,287,n41)(n55,288,n43)(n55,291,n45)(n55,293,n47)(n55,296,n48)(n55,297,n48)(n55,299,n51)(n55,317,n54)(n55,323,n54)(n56,0,n4)(n56,250,n4)(n56,251,n8)(n56,253,n10)(n56,254,n12)(n56,255,n12)(n56,256,n16)(n56,257,n16)(n56,258,n20)(n56,259,n20)(n56,260,n23)(n56,261,n25)(n56,262,n27)(n56,264,n29)(n56,267,n31)(n56,278,n34)(n56,280,n34)(n56,281,n37)(n56,286,n39)(n56,287,n41)(n56,288,n43)(n56,291,n45)(n56,293,n47)(n56,296,n48)(n56,297,n48)(n56,299,n51)(n56,317,n54)(n56,323,n54)(n56,327,n57)(n57,0,nodeT)(n57,250,nodeT)(n57,251,nodeT)(n57,253,nodeT)(n57,254,nodeT)(n57,255,nodeT)(n57,256,nodeT)(n57,257,nodeT)(n57,258,nodeT)(n57,259,nodeT)(n57,260,nodeT)(n57,261,nodeT)(n57,262,nodeT)(n57,264,nodeT)(n57,267,nodeT)(n57,278,nodeT)(n57,280,nodeT)(n57,281,nodeT)(n57,286,nodeT)(n57,287,nodeT)(n57,288,nodeT)(n57,291,nodeT)(n57,293,nodeT)(n57,296,nodeT)(n57,297,nodeT)(n57,299,nodeT)(n57,317,nodeT)(n57,323,nodeT)(n58,0,n4)(n58,250,n4)(n58,251,n8)(n58,253,n10)(n58,254,n12)(n58,255,n12)(n58,256,n16)(n58,257,n16)(n58,258,n20)(n58,259,n20)(n58,260,n23)(n58,261,n25)(n58,262,n27)(n58,264,n29)(n58,267,n31)(n58,278,n34)(n58,280,n34)(n58,281,n37)(n58,286,n39)(n58,287,n41)(n58,288,n43)(n58,291,n45)(n58,293,n47)(n58,296,n48)(n58,297,n48)(n58,299,n51)(n58,317,n54)(n58,323,n54)(n58,327,n57)(n58,340,n52)(n59,0,n4)(n59,250,n4)(n59,251,n8)(n59,253,n10)(n59,254,n12)(n59,255,n12)(n59,256,n16)(n59,257,n16)(n59,258,n20)(n59,259,n20)(n59,260,n23)(n59,261,n25)(n59,262,n27)(n59,264,n29)(n59,267,n31)(n59,278,n34)(n59,280,n34)(n59,281,n37)(n59,286,n39)(n59,287,n41)(n59,288,n43)(n59,291,n45)(n59,293,n47)(n59,296,n48)(n59,297,n48)(n59,299,n51)(n59,317,n54)(n59,323,n54)(n59,327,n54)(n59,340,n52)(n59,350,n51)(n60,0,n4)(n60,250,n4)(n60,251,n8)(n60,253,n10)(n60,254,n12)(n60,255,n12)(n60,256,n16)(n60,257,n16)(n60,258,n20)(n60,259,n20)(n60,260,n23)(n60,261,n25)(n60,262,n27)(n60,264,n29)(n60,267,n31)(n60,278,n34)(n60,280,n34)(n60,281,n37)(n60,286,n39)(n60,287,n41)(n60,288,n43)(n60,291,n45)(n60,293,n47)(n60,296,n48)(n60,297,n48)(n60,299,n51)(n60,317,n54)(n60,323,n54)(n60,327,n54)(n60,340,n52)(n60,350,n61)(n60,353,n47)(n61,0,nodeT)(n61,250,nodeT)(n61,251,nodeT)(n61,253,nodeT)(n61,254,nodeT)(n61,255,nodeT)(n61,256,nodeT)(n61,257,nodeT)(n61,258,nodeT)(n61,259,nodeT)(n61,260,nodeT)(n61,261,nodeT)(n61,262,nodeT)(n61,264,nodeT)(n61,267,nodeT)(n61,278,nodeT)(n61,280,nodeT)(n61,281,nodeT)(n61,286,nodeT)(n61,287,nodeT)(n61,288,nodeT)(n61,291,nodeT)(n61,293,nodeT)(n62,0,n4)(n62,250,n4)(n62,251,n8)(n62,253,n10)(n62,254,n12)(n62,255,n12)(n62,256,n16)(n62,257,n16)(n62,258,n20)(n62,259,n20)(n62,260,n23)(n62,261,n25)(n62,262,n27)(n62,264,n29)(n62,267,n31)(n62,278,n34)(n62,280,n34)(n62,281,n37)(n62,286,n39)(n62,287,n41)(n62,288,n43)(n62,291,n45)(n62,293,n47)(n62,296,n48)(n62,297,n48)(n62,299,n51)(n62,317,n54)(n62,323,n52)(n62,327,n52)(n62,340,n52)(n62,350,n45)(n62,353,n41)(n62,356,n39)(n63,0,n4)(n63,250,n4)(n63,251,n8)(n63,253,n10)(n63,254,n12)(n63,255,n12)(n63,256,n16)(n63,257,n16)(n63,258,n20)(n63,259,n20)(n63,260,n23)(n63,261,n25)(n63,262,n27)(n63,264,n29)(n63,267,n31)(n63,278,n34)(n63,280,n34)(n63,281,n37)(n63,286,n39)(n63,287,n41)(n63,288,n43)(n63,291,n45)(n63,293,n47)(n63,296,n48)(n63,297,n48)(n63,299,n51)(n63,317,n52)(n63,323,n52)(n63,327,n52)(n63,340,n47)(n63,350,n39)(n63,353,n34)(n63,356,n32)(n63,361,n32)(n64,0,n4)(n64,250,n4)(n64,251,n8)(n64,253,n10)(n64,254,n12)(n64,255,n12)(n64,256,n16)(n64,257,n16)(n64,258,n20)(n64,259,n20)(n64,260,n23)(n64,261,n25)(n64,262,n27)(n64,264,n29)(n64,267,n31)(n64,278,n34)(n64,280,n34)(n64,281,n37)(n64,286,n39)(n64,287,n41)(n64,288,n43)(n64,291,n45)(n64,293,n47)(n64,296,n48)(n64,297,n48)(n64,299,n51)(n64,317,n52)(n64,323,n48)(n64,327,n47)(n64,340,n34)(n64,350,n32)(n64,353,n31)(n64,356,n29)(n64,361,n20)(n64,369,n6)(n65,0,n4)(n65,250,n4)(n65,251,n8)(n65,253,n10)(n65,254,n12)(n65,255,n12)(n65,256,n16)(n65,257,n16)(n65,258,n20)(n65,259,n20)(n65,260,n23)(n65,261,n25)(n65,262,n27)(n65,264,n29)(n65,267,n31)(n65,278,n34)(n65,280,n34)(n65,281,n37)(n65,286,n39)(n65,287,n41)(n65,288,n43)(n65,291,n45)(n65,293,n47)(n65,296,n48)(n65,297,n48)(n65,299,n51)(n65,317,n51)(n65,323,n47)(n65,327,n43)(n65,340,n32)(n65,350,n31)(n65,353,n27)(n65,356,n20)(n65,361,n10)(n65,369,n4)(n65,381,n4)(n66,0,n4)(n66,250,n4)(n66,251,n8)(n66,253,n10)(n66,254,n12)(n66,255,n12)(n66,256,n16)(n66,257,n16)(n66,258,n20)(n66,259,n20)(n66,260,n23)(n66,261,n25)(n66,262,n27)(n66,264,n29)(n66,267,n31)(n66,278,n34)(n66,280,n34)(n66,281,n37)(n66,286,n39)(n66,287,n41)(n66,288,n43)(n66,291,n45)(n66,293,n45)(n66,296,n39)(n66,297,n39)(n66,299,n39)(n66,317,n31)(n66,323,n20)(n66,327,n12)(n66,340,n4)(n66,350,n4)(n66,353,n4)(n66,356,n4)(n66,361,n4)(n66,369,n4)(n66,381,n4)(n66,386,n4)(n67,0,n4)(n67,250,n4)(n67,251,n8)(n67,253,n10)(n67,254,n12)(n67,255,n12)(n67,256,n16)(n67,257,n16)(n67,258,n20)(n67,259,n20)(n67,260,n23)(n67,261,n25)(n67,262,n27)(n67,264,n29)(n67,267,n31)(n67,278,n34)(n67,280,n34)(n67,281,n37)(n67,286,n39)(n67,287,n41)(n67,288,n43)(n67,291,n45)(n67,293,n41)(n67,296,n39)(n67,297,n39)(n67,299,n37)(n67,317,n29)(n67,323,n16)(n67,327,n8)(n67,340,n4)(n67,350,n4)(n67,353,n4)(n67,356,n4)(n67,361,n4)(n67,369,n4)(n67,381,n4)(n67,386,n4)(n67,419,n4)(n68,0,n4)(n68,250,n4)(n68,251,n8)(n68,253,n10)(n68,254,n12)(n68,255,n12)(n68,256,n16)(n68,257,n16)(n68,258,n20)(n68,259,n20)(n68,260,n23)(n68,261,n25)(n68,262,n27)(n68,264,n29)(n68,267,n31)(n68,278,n34)(n68,280,n34)(n68,281,n37)(n68,286,n39)(n68,287,n39)(n68,288,n39)(n68,291,n37)(n68,293,n34)(n68,296,n32)(n68,297,n32)(n68,299,n32)(n68,317,n12)(n68,323,n4)(n68,327,n4)(n68,340,n4)(n68,350,n4)(n68,353,n4)(n68,356,n4)(n68,361,n4)(n68,369,n4)(n68,381,n4)(n68,386,n4)(n68,419,n4)(n68,421,n4)(n69,0,n4)(n69,250,n4)(n69,251,n8)(n69,253,n10)(n69,254,n12)(n69,255,n12)(n69,256,n16)(n69,257,n16)(n69,258,n20)(n69,259,n20)(n69,260,n23)(n69,261,n25)(n69,262,n27)(n69,264,n29)(n69,267,n31)(n69,278,n34)(n69,280,n34)(n69,281,n37)(n69,286,n37)(n69,287,n34)(n69,288,n34)(n69,291,n32)(n69,293,n32)(n69,296,n32)(n69,297,n32)(n69,299,n32)(n69,317,n4)(n69,323,n4)(n69,327,n4)(n69,340,n4)(n69,350,n4)(n69,353,n4)(n69,356,n4)(n69,361,n4)(n69,369,n4)(n69,381,n4)(n69,386,n4)(n69,419,n4)(n69,421,n4)(n69,429,n4)(n70,0,n4)(n70,250,n4)(n70,251,n8)(n70,253,n10)(n70,254,n12)(n70,255,n12)(n70,256,n16)(n70,257,n16)(n70,258,n20)(n70,259,n20)(n70,260,n23)(n70,261,n25)(n70,262,n27)(n70,264,n29)(n70,267,n31)(n70,278,n34)(n70,280,n32)(n70,281,n32)(n70,286,n32)(n70,287,n32)(n70,288,n32)(n70,291,n31)(n70,293,n29)(n70,296,n25)(n70,297,n23)(n70,299,n18)(n70,317,n4)(n70,323,n4)(n70,327,n4)(n70,340,n4)(n70,350,n4)(n70,353,n4)(n70,356,n4)(n70,361,n4)(n70,369,n4)(n70,381,n4)(n70,386,n4)(n70,419,n4)(n70,421,n4)(n70,429,n4)(n70,434,n4)(n71,0,n4)(n71,250,n4)(n71,251,n8)(n71,253,n10)(n71,254,n12)(n71,255,n12)(n71,256,n16)(n71,257,n16)(n71,258,n20)(n71,259,n20)(n71,260,n23)(n71,261,n25)(n71,262,n27)(n71,264,n29)(n71,267,n31)(n71,278,n32)(n71,280,n32)(n71,281,n32)(n71,286,n31)(n71,287,n31)(n71,288,n31)(n71,291,n27)(n71,293,n23)(n71,296,n16)(n71,297,n14)(n71,299,n10)(n71,317,n4)(n71,323,n4)(n71,327,n4)(n71,340,n4)(n71,350,n4)(n71,353,n4)(n71,356,n4)(n71,361,n4)(n71,369,n4)(n71,381,n4)(n71,386,n4)(n71,419,n4)(n71,421,n4)(n71,429,n4)(n71,434,n4)(n71,444,n4)(n72,0,n4)(n72,250,n4)(n72,251,n8)(n72,253,n10)(n72,254,n12)(n72,255,n12)(n72,256,n16)(n72,257,n16)(n72,258,n20)(n72,259,n20)(n72,260,n23)(n72,261,n25)(n72,262,n27)(n72,264,n29)(n72,267,n31)(n72,278,n32)(n72,280,n32)(n72,281,n32)(n72,286,n29)(n72,287,n27)(n72,288,n25)(n72,291,n18)(n72,293,n14)(n72,296,n8)(n72,297,n8)(n72,299,n4)(n72,317,n4)(n72,323,n4)(n72,327,n4)(n72,340,n4)(n72,350,n4)(n72,353,n4)(n72,356,n4)(n72,361,n4)(n72,369,n4)(n72,381,n4)(n72,386,n4)(n72,419,n4)(n72,421,n4)(n72,429,n4)(n72,434,n4)(n72,444,n4)(n72,448,n4)(n73,0,n4)(n73,250,n4)(n73,251,n8)(n73,253,n10)(n73,254,n12)(n73,255,n12)(n73,256,n16)(n73,257,n16)(n73,258,n20)(n73,259,n20)(n73,260,n23)(n73,261,n25)(n73,262,n27)(n73,264,n29)(n73,267,n31)(n73,278,n31)(n73,280,n31)(n73,281,n29)(n73,286,n20)(n73,287,n18)(n73,288,n16)(n73,291,n10)(n73,293,n8)(n73,296,n4)(n73,297,n4)(n73,299,n4)(n73,317,n4)(n73,323,n4)(n73,327,n4)(n73,340,n4)(n73,350,n4)(n73,353,n4)(n73,356,n4)(n73,361,n4)(n73,369,n4)(n73,381,n4)(n73,386,n4)(n73,419,n4)(n73,421,n4)(n73,429,n4)(n73,434,n4)(n73,444,n4)(n73,448,n4)(n73,452,n4)(n74,0,n4)(n74,250,n4)(n74,251,n8)(n74,253,n10)(n74,254,n12)(n74,255,n12)(n74,256,n16)(n74,257,n16)(n74,258,n20)(n74,259,n20)(n74,260,n23)(n74,261,n25)(n74,262,n27)(n74,264,n29)(n74,267,n31)(n74,278,n29)(n74,280,n27)(n74,281,n25)(n74,286,n14)(n74,287,n12)(n74,288,n10)(n74,291,n6)(n74,293,n4)(n74,296,n4)(n74,297,n4)(n74,299,n4)(n74,317,n4)(n74,323,n4)(n74,327,n4)(n74,340,n4)(n74,350,n4)(n74,353,n4)(n74,356,n4)(n74,361,n4)(n74,369,n4)(n74,381,n4)(n74,386,n4)(n74,419,n4)(n74,421,n4)(n74,429,n4)(n74,434,n4)(n74,444,n4)(n74,448,n4)(n74,452,n4)(n74,456,n4)(n75,0,n4)(n75,250,n4)(n75,251,n8)(n75,253,n10)(n75,254,n12)(n75,255,n12)(n75,256,n16)(n75,257,n16)(n75,258,n20)(n75,259,n20)(n75,260,n23)(n75,261,n23)(n75,262,n20)(n75,264,n16)(n75,267,n10)(n75,278,n4)(n75,280,n4)(n75,281,n4)(n75,286,n4)(n75,287,n4)(n75,288,n4)(n75,291,n4)(n75,293,n4)(n75,296,n4)(n75,297,n4)(n75,299,n4)(n75,317,n4)(n75,323,n4)(n75,327,n4)(n75,340,n4)(n75,350,n4)(n75,353,n4)(n75,356,n4)(n75,361,n4)(n75,369,n4)(n75,381,n4)(n75,386,n4)(n75,419,n4)(n75,421,n4)(n75,429,n4)(n75,434,n4)(n75,444,n4)(n75,448,n4)(n75,452,n4)(n75,456,n4)(n75,459,n4)(n76,0,n4)(n76,250,n4)(n76,251,n8)(n76,253,n10)(n76,254,n12)(n76,255,n12)(n76,256,n16)(n76,257,n16)(n76,258,n18)(n76,259,n16)(n76,260,n14)(n76,261,n12)(n76,262,n10)(n76,264,n8)(n76,267,n4)(n76,278,n4)(n76,280,n4)(n76,281,n4)(n76,286,n4)(n76,287,n4)(n76,288,n4)(n76,291,n4)(n76,293,n4)(n76,296,n4)(n76,297,n4)(n76,299,n4)(n76,317,n4)(n76,323,n4)(n76,327,n4)(n76,340,n4)(n76,350,n4)(n76,353,n4)(n76,356,n4)(n76,361,n4)(n76,369,n4)(n76,381,n4)(n76,386,n4)(n76,419,n4)(n76,421,n4)(n76,429,n4)(n76,434,n4)(n76,444,n4)(n76,448,n4)(n76,452,n4)(n76,456,n4)(n76,459,n4)(n76,480,n4)(n77,0,n4)(n77,250,n4)(n77,251,n8)(n77,253,n10)(n77,254,n12)(n77,255,n12)(n77,256,n16)(n77,257,n14)(n77,258,n12)(n77,259,n10)(n77,260,n8)(n77,261,n8)(n77,262,n6)(n77,264,n4)(n77,267,n4)(n77,278,n4)(n77,280,n4)(n77,281,n4)(n77,286,n4)(n77,287,n4)(n77,288,n4)(n77,291,n4)(n77,293,n4)(n77,296,n4)(n77,297,n4)(n77,299,n4)(n77,317,n4)(n77,323,n4)(n77,327,n4)(n77,340,n4)(n77,350,n4)(n77,353,n4)(n77,356,n4)(n77,361,n4)(n77,369,n4)(n77,381,n4)(n77,386,n4)(n77,419,n4)(n77,421,n4)(n77,429,n4)(n77,434,n4)(n77,444,n4)(n77,448,n4)(n77,452,n4)(n77,456,n4)(n77,459,n4)(n77,480,n4)(n77,485,n4)(n78,0,n4)(n78,250,n4)(n78,251,n8)(n78,253,n10)(n78,254,n12)(n78,255,n10)(n78,256,n8)(n78,257,n8)(n78,258,n6)(n78,259,n4)(n78,260,n4)(n78,261,n4)(n78,262,n4)(n78,264,n4)(n78,267,n4)(n78,278,n4)(n78,280,n4)(n78,281,n4)(n78,286,n4)(n78,287,n4)(n78,288,n4)(n78,291,n4)(n78,293,n4)(n78,296,n4)(n78,297,n4)(n78,299,n4)(n78,317,n4)(n78,323,n4)(n78,327,n4)(n78,340,n4)(n78,350,n4)(n78,353,n4)(n78,356,n4)(n78,361,n4)(n78,369,n4)(n78,381,n4)(n78,386,n4)(n78,419,n4)(n78,421,n4)(n78,429,n4)(n78,434,n4)(n78,444,n4)(n78,448,n4)(n78,452,n4)(n78,456,n4)(n78,459,n4)(n78,480,n4)(n78,485,n4)(n78,488,n4)(n79,0,n4)(n79,250,n4)(n79,251,n8)(n79,253,n10)(n79,254,n10)(n79,255,n8)(n79,256,n8)(n79,257,n6)(n79,258,n4)(n79,259,n4)(n79,260,n4)(n79,261,n4)(n79,262,n4)(n79,264,n4)(n79,267,n4)(n79,278,n4)(n79,280,n4)(n79,281,n4)(n79,286,n4)(n79,287,n4)(n79,288,n4)(n79,291,n4)(n79,293,n4)(n79,296,n4)(n79,297,n4)(n79,299,n4)(n79,317,n4)(n79,323,n4)(n79,327,n4)(n79,340,n4)(n79,350,n4)(n79,353,n4)(n79,356,n4)(n79,361,n4)(n79,369,n4)(n79,381,n4)(n79,386,n4)(n79,419,n4)(n79,421,n4)(n79,429,n4)(n79,434,n4)(n79,444,n4)(n79,448,n4)(n79,452,n4)(n79,456,n4)(n79,459,n4)(n79,480,n4)(n79,485,n4)(n79,488,n4)(n79,492,n4)(n80,0,n4)(n80,250,n4)(n80,251,n8)(n80,253,n8)(n80,254,n8)(n80,255,n6)(n80,256,n4)(n80,257,n4)(n80,258,n4)(n80,259,n4)(n80,260,n4)(n80,261,n4)(n80,262,n4)(n80,264,n4)(n80,267,n4)(n80,278,n4)(n80,280,n4)(n80,281,n4)(n80,286,n4)(n80,287,n4)(n80,288,n4)(n80,291,n4)(n80,293,n4)(n80,296,n4)(n80,297,n4)(n80,299,n4)(n80,317,n4)(n80,323,n4)(n80,327,n4)(n80,340,n4)(n80,350,n4)(n80,353,n4)(n80,356,n4)(n80,361,n4)(n80,369,n4)(n80,381,n4)(n80,386,n4)(n80,419,n4)(n80,421,n4)(n80,429,n4)(n80,434,n4)(n80,444,n4)(n80,448,n4)(n80,452,n4)(n80,456,n4)(n80,459,n4)(n80,480,n4)(n80,485,n4)(n80,488,n4)(n80,492,n4)(n80,493,n4) </transitions>
      </mdd>
      <args> b[0][] </args>
      <args> b[1][] </args>
      <args> b[2][] </args>
      <args> b[3][] </args>
      <args> b[4][] </args>
      <args> b[5][] </args>
      <args> b[6][] </args>
      <args> b[7][] </args>
      <args> b[8][] </args>
      <args> b[9][] </args>
      <args> b[10][] </args>
      <args> b[11][] </args>
      <args> b[12][] </args>
      <args> b[13][] </args>
      <args> b[14][] </args>
      <args> b[15][] </args>
      <args> b[16][] </args>
      <args> b[17][] </args>
      <args> b[18][] </args>
      <args> b[19][] </args>
      <args> b[20][] </args>
      <args> b[21][] </args>
      <args> b[22][] </args>
    </group>
    <cardinality>
      <list> b[][] </list>
      <values> 0 250 251 253 254 255 256 257 258 259 260 261 262 264 267 278 280 281 286 287 288 291 293 296 297 299 317 323 327 340 350 353 356 361 369 381 386 419 421 429 434 444 448 452 456 459 480 485 488 492 493 495 </values>
      <occurs> 9 1 2 2 2 1 2 1 2 1 1 1 1 1 1 2 1 1 1 1 1 1 1 3 1 1 2 1 1 1 1 1 1 1 1 1 1 1 1 1 1 1 1 1 1 1 1 1 1 1 1 1 </occurs>
    </cardinality>
    <lex class="symmetryBreaking">
      <list> b[0][] </list>
      <list> b[1][] </list>
      <list> b[2][] </list>
      <list> b[3][] </list>
      <list> b[4][] </list>
      <list> b[5][] </list>
      <list> b[6][] </list>
      <list> b[7][] </list>
      <list> b[8][] </list>
      <list> b[9][] </list>
      <list> b[10][] </list>
      <list> b[11][] </list>
      <list> b[12][] </list>
      <list> b[13][] </list>
      <list> b[14][] </list>
      <list> b[15][] </list>
      <list> b[16][] </list>
      <list> b[17][] </list>
      <list> b[18][] </list>
      <list> b[19][] </list>
      <list> b[20][] </list>
      <list> b[21][] </list>
      <list> b[22][] </list>
      <operator> ge </operator>
    </lex>
    <count>
      <list> b[][0] </list>
      <values> 0 </values>
      <condition> (eq,x) </condition>
    </count>
  </constraints>
  <objectives>
    <maximize> x </maximize>
  </objectives>
</instance>
